# This script creates a (001) FCC surface with a parameter
# close to FCC Al at normal T and P.

units metal
boundary p p p
pair_style zero 5.
atom_style full

lattice fcc 4.0478
region box block 0 5 0 5 0 10
create_box 2 box

region surf block 0 5 0 5 0 5
create_atoms 1 region surf

pair_coeff * *

mass * 26.981

write_data data.in.lmp
